(declare-fun cmp205.not.i.i_44_101 () (_ BitVec 1))
(declare-fun narrow_44_103 () (_ BitVec 1))
(declare-fun cmp201.i.i_44_100 () (_ BitVec 1))
(declare-fun i144.i.i_44_98 () (_ BitVec 32))
(declare-fun i138.i.i_44_97 () (_ BitVec 32))
(declare-fun i146.i.i_44_99 () (_ BitVec 32))
(declare-fun i136.i.i_44_96 () (_ BitVec 32))
(declare-fun src_reg_44_27 () (_ BitVec 32))
(declare-fun src_reg_44_26 () (_ BitVec 32))
(declare-fun dst_reg_44_9 () (_ BitVec 32))
(declare-fun dst_reg_44_8 () (_ BitVec 32))
(declare-fun i30.i32_44_95 () (_ BitVec 32))
(declare-fun src_reg_44_29 () (_ BitVec 32))
(declare-fun i29.i29_44_94 () (_ BitVec 32))
(declare-fun src_reg_44_28 () (_ BitVec 32))
(declare-fun i28.i26_44_93 () (_ BitVec 32))
(declare-fun i27.i23_44_92 () (_ BitVec 32))
(declare-fun i26.i20_44_91 () (_ BitVec 64))
(declare-fun src_reg_44_25 () (_ BitVec 64))
(declare-fun i25.i17_44_90 () (_ BitVec 64))
(declare-fun src_reg_44_24 () (_ BitVec 64))
(declare-fun i24.i14_44_89 () (_ BitVec 64))
(declare-fun src_reg_44_23 () (_ BitVec 64))
(declare-fun i23.i11_44_88 () (_ BitVec 64))
(declare-fun src_reg_44_22 () (_ BitVec 64))
(declare-fun i22.i8_44_87 () (_ BitVec 64))
(declare-fun src_reg_44_21 () (_ BitVec 64))
(declare-fun i21.i5_44_86 () (_ BitVec 64))
(declare-fun src_reg_44_20 () (_ BitVec 64))
(declare-fun i.i2_44_85 () (_ BitVec 32))
(declare-fun i30.i_44_84 () (_ BitVec 32))
(declare-fun dst_reg_44_11 () (_ BitVec 32))
(declare-fun i29.i_44_83 () (_ BitVec 32))
(declare-fun dst_reg_44_10 () (_ BitVec 32))
(declare-fun i28.i_44_82 () (_ BitVec 32))
(declare-fun i27.i_44_81 () (_ BitVec 32))
(declare-fun i26.i_44_80 () (_ BitVec 64))
(declare-fun dst_reg_44_7 () (_ BitVec 64))
(declare-fun i25.i_44_79 () (_ BitVec 64))
(declare-fun dst_reg_44_6 () (_ BitVec 64))
(declare-fun i24.i_44_78 () (_ BitVec 64))
(declare-fun dst_reg_44_5 () (_ BitVec 64))
(declare-fun i23.i_44_77 () (_ BitVec 64))
(declare-fun dst_reg_44_4 () (_ BitVec 64))
(declare-fun i22.i_44_76 () (_ BitVec 64))
(declare-fun dst_reg_44_3 () (_ BitVec 64))
(declare-fun i21.i_44_75 () (_ BitVec 64))
(declare-fun dst_reg_44_2 () (_ BitVec 64))
(declare-fun i.i_44_74 () (_ BitVec 32))
(declare-fun other_branch_src_reg_44_71 () (_ BitVec 8))
(declare-fun other_branch_src_reg_44_70 () (_ BitVec 32))
(declare-fun other_branch_src_reg_44_69 () (_ BitVec 32))
(declare-fun other_branch_src_reg_44_68 () (_ BitVec 32))
(declare-fun other_branch_src_reg_44_67 () (_ BitVec 32))
(declare-fun other_branch_src_reg_44_66 () (_ BitVec 32))
(declare-fun other_branch_src_reg_44_65 () (_ BitVec 32))
(declare-fun other_branch_src_reg_44_64 () (_ BitVec 32))
(declare-fun other_branch_src_reg_44_63 () (_ BitVec 32))
(declare-fun other_branch_src_reg_44_62 () (_ BitVec 32))
(declare-fun other_branch_src_reg_44_61 () (_ BitVec 64))
(declare-fun other_branch_src_reg_44_60 () (_ BitVec 64))
(declare-fun other_branch_src_reg_44_59 () (_ BitVec 64))
(declare-fun other_branch_src_reg_44_58 () (_ BitVec 64))
(declare-fun other_branch_src_reg_44_57 () (_ BitVec 64))
(declare-fun other_branch_src_reg_44_56 () (_ BitVec 64))
(declare-fun other_branch_src_reg_44_55 () (_ BitVec 32))
(declare-fun other_branch_src_reg_44_54 () (_ BitVec 32))
(declare-fun other_branch_dst_reg_44_53 () (_ BitVec 8))
(declare-fun other_branch_dst_reg_44_52 () (_ BitVec 32))
(declare-fun other_branch_dst_reg_44_51 () (_ BitVec 32))
(declare-fun other_branch_dst_reg_44_50 () (_ BitVec 32))
(declare-fun other_branch_dst_reg_44_49 () (_ BitVec 32))
(declare-fun other_branch_dst_reg_44_48 () (_ BitVec 32))
(declare-fun other_branch_dst_reg_44_47 () (_ BitVec 32))
(declare-fun other_branch_dst_reg_44_46 () (_ BitVec 32))
(declare-fun other_branch_dst_reg_44_45 () (_ BitVec 32))
(declare-fun other_branch_dst_reg_44_44 () (_ BitVec 32))
(declare-fun other_branch_dst_reg_44_43 () (_ BitVec 64))
(declare-fun other_branch_dst_reg_44_42 () (_ BitVec 64))
(declare-fun other_branch_dst_reg_44_41 () (_ BitVec 64))
(declare-fun other_branch_dst_reg_44_40 () (_ BitVec 64))
(declare-fun other_branch_dst_reg_44_39 () (_ BitVec 64))
(declare-fun other_branch_dst_reg_44_38 () (_ BitVec 64))
(declare-fun other_branch_dst_reg_44_37 () (_ BitVec 32))
(declare-fun other_branch_dst_reg_44_36 () (_ BitVec 32))
(declare-fun src_reg_44_35 () (_ BitVec 8))
(declare-fun src_reg_44_34 () (_ BitVec 32))
(declare-fun src_reg_44_33 () (_ BitVec 32))
(declare-fun src_reg_44_32 () (_ BitVec 32))
(declare-fun src_reg_44_31 () (_ BitVec 32))
(declare-fun src_reg_44_30 () (_ BitVec 32))
(declare-fun src_reg_44_19 () (_ BitVec 32))
(declare-fun src_reg_44_18 () (_ BitVec 32))
(declare-fun dst_reg_44_17 () (_ BitVec 8))
(declare-fun dst_reg_44_16 () (_ BitVec 32))
(declare-fun dst_reg_44_15 () (_ BitVec 32))
(declare-fun dst_reg_44_14 () (_ BitVec 32))
(declare-fun dst_reg_44_13 () (_ BitVec 32))
(declare-fun dst_reg_44_12 () (_ BitVec 32))
(declare-fun dst_reg_44_1 () (_ BitVec 32))
(declare-fun dst_reg_44_0 () (_ BitVec 32))
(declare-fun cmp.not.i_44_106 () (_ BitVec 1))
(declare-fun i.i35_44_104 () (_ BitVec 32))
(declare-fun cmp2.not.i_44_109 () (_ BitVec 1))
(declare-fun i1.i_44_107 () (_ BitVec 32))
(declare-fun i373.i567.i_44_124 () (_ BitVec 32))
(declare-fun cond418.i569.i_44_126 () (_ BitVec 32))
(declare-fun add410.i565.i_44_123 () (_ BitVec 32))
(declare-fun cmp413.i568.i_44_125 () (_ BitVec 1))
(declare-fun i372.i564.i_44_121 () (_ BitVec 32))
(declare-fun sub400.i560.i_44_118 () (_ BitVec 32))
(declare-fun cond407.i562.i_44_120 () (_ BitVec 32))
(declare-fun i370.i557.i_44_115 () (_ BitVec 32))
(declare-fun cmp402.i561.i_44_119 () (_ BitVec 1))
(declare-fun i371.i559.i_44_116 () (_ BitVec 32))
(declare-fun i365.i.i_44_112 () (_ BitVec 32))
(declare-fun cond371.i.i_44_114 () (_ BitVec 32))
(declare-fun cmp366.i.i_44_113 () (_ BitVec 1))
(declare-fun cond361.i.i_44_111 () (_ BitVec 32))
(declare-fun cmp356.i.i_44_110 () (_ BitVec 1))
(declare-fun other_branch_src_reg_44_270 () (_ BitVec 8))
(declare-fun other_branch_src_reg_44_198 () (_ BitVec 8))
(declare-fun other_branch_src_reg_44_269 () (_ BitVec 32))
(declare-fun other_branch_src_reg_44_197 () (_ BitVec 32))
(declare-fun other_branch_src_reg_44_268 () (_ BitVec 32))
(declare-fun other_branch_src_reg_44_196 () (_ BitVec 32))
(declare-fun other_branch_src_reg_44_267 () (_ BitVec 32))
(declare-fun other_branch_src_reg_44_195 () (_ BitVec 32))
(declare-fun other_branch_src_reg_44_266 () (_ BitVec 32))
(declare-fun other_branch_src_reg_44_194 () (_ BitVec 32))
(declare-fun other_branch_src_reg_44_265 () (_ BitVec 32))
(declare-fun other_branch_src_reg_44_193 () (_ BitVec 32))
(declare-fun other_branch_src_reg_44_264 () (_ BitVec 32))
(declare-fun other_branch_src_reg_44_192 () (_ BitVec 32))
(declare-fun other_branch_src_reg_44_263 () (_ BitVec 32))
(declare-fun other_branch_src_reg_44_191 () (_ BitVec 32))
(declare-fun other_branch_src_reg_44_262 () (_ BitVec 32))
(declare-fun other_branch_src_reg_44_190 () (_ BitVec 32))
(declare-fun other_branch_src_reg_44_261 () (_ BitVec 32))
(declare-fun other_branch_src_reg_44_189 () (_ BitVec 32))
(declare-fun other_branch_src_reg_44_260 () (_ BitVec 64))
(declare-fun other_branch_src_reg_44_188 () (_ BitVec 64))
(declare-fun other_branch_src_reg_44_259 () (_ BitVec 64))
(declare-fun other_branch_src_reg_44_187 () (_ BitVec 64))
(declare-fun other_branch_src_reg_44_258 () (_ BitVec 64))
(declare-fun other_branch_src_reg_44_186 () (_ BitVec 64))
(declare-fun other_branch_src_reg_44_257 () (_ BitVec 64))
(declare-fun other_branch_src_reg_44_185 () (_ BitVec 64))
(declare-fun other_branch_src_reg_44_256 () (_ BitVec 64))
(declare-fun other_branch_src_reg_44_184 () (_ BitVec 64))
(declare-fun other_branch_src_reg_44_255 () (_ BitVec 64))
(declare-fun other_branch_src_reg_44_183 () (_ BitVec 64))
(declare-fun other_branch_src_reg_44_254 () (_ BitVec 32))
(declare-fun other_branch_src_reg_44_182 () (_ BitVec 32))
(declare-fun other_branch_src_reg_44_253 () (_ BitVec 32))
(declare-fun other_branch_src_reg_44_181 () (_ BitVec 32))
(declare-fun other_branch_dst_reg_44_252 () (_ BitVec 8))
(declare-fun other_branch_dst_reg_44_180 () (_ BitVec 8))
(declare-fun other_branch_dst_reg_44_251 () (_ BitVec 32))
(declare-fun other_branch_dst_reg_44_179 () (_ BitVec 32))
(declare-fun other_branch_dst_reg_44_250 () (_ BitVec 32))
(declare-fun other_branch_dst_reg_44_178 () (_ BitVec 32))
(declare-fun other_branch_dst_reg_44_249 () (_ BitVec 32))
(declare-fun other_branch_dst_reg_44_177 () (_ BitVec 32))
(declare-fun other_branch_dst_reg_44_248 () (_ BitVec 32))
(declare-fun other_branch_dst_reg_44_176 () (_ BitVec 32))
(declare-fun other_branch_dst_reg_44_247 () (_ BitVec 32))
(declare-fun other_branch_dst_reg_44_175 () (_ BitVec 32))
(declare-fun other_branch_dst_reg_44_246 () (_ BitVec 32))
(declare-fun other_branch_dst_reg_44_174 () (_ BitVec 32))
(declare-fun other_branch_dst_reg_44_245 () (_ BitVec 32))
(declare-fun other_branch_dst_reg_44_173 () (_ BitVec 32))
(declare-fun other_branch_dst_reg_44_244 () (_ BitVec 32))
(declare-fun other_branch_dst_reg_44_172 () (_ BitVec 32))
(declare-fun other_branch_dst_reg_44_243 () (_ BitVec 32))
(declare-fun other_branch_dst_reg_44_171 () (_ BitVec 32))
(declare-fun other_branch_dst_reg_44_242 () (_ BitVec 64))
(declare-fun other_branch_dst_reg_44_170 () (_ BitVec 64))
(declare-fun other_branch_dst_reg_44_241 () (_ BitVec 64))
(declare-fun other_branch_dst_reg_44_169 () (_ BitVec 64))
(declare-fun other_branch_dst_reg_44_240 () (_ BitVec 64))
(declare-fun other_branch_dst_reg_44_168 () (_ BitVec 64))
(declare-fun other_branch_dst_reg_44_239 () (_ BitVec 64))
(declare-fun other_branch_dst_reg_44_167 () (_ BitVec 64))
(declare-fun other_branch_dst_reg_44_238 () (_ BitVec 64))
(declare-fun other_branch_dst_reg_44_166 () (_ BitVec 64))
(declare-fun other_branch_dst_reg_44_237 () (_ BitVec 64))
(declare-fun other_branch_dst_reg_44_165 () (_ BitVec 64))
(declare-fun other_branch_dst_reg_44_236 () (_ BitVec 32))
(declare-fun other_branch_dst_reg_44_164 () (_ BitVec 32))
(declare-fun other_branch_dst_reg_44_235 () (_ BitVec 32))
(declare-fun other_branch_dst_reg_44_163 () (_ BitVec 32))
(declare-fun src_reg_44_234 () (_ BitVec 8))
(declare-fun src_reg_44_162 () (_ BitVec 8))
(declare-fun src_reg_44_233 () (_ BitVec 32))
(declare-fun src_reg_44_161 () (_ BitVec 32))
(declare-fun src_reg_44_232 () (_ BitVec 32))
(declare-fun src_reg_44_160 () (_ BitVec 32))
(declare-fun src_reg_44_231 () (_ BitVec 32))
(declare-fun src_reg_44_159 () (_ BitVec 32))
(declare-fun src_reg_44_230 () (_ BitVec 32))
(declare-fun src_reg_44_158 () (_ BitVec 32))
(declare-fun src_reg_44_229 () (_ BitVec 32))
(declare-fun src_reg_44_157 () (_ BitVec 32))
(declare-fun src_reg_44_228 () (_ BitVec 32))
(declare-fun src_reg_44_156 () (_ BitVec 32))
(declare-fun src_reg_44_227 () (_ BitVec 32))
(declare-fun src_reg_44_155 () (_ BitVec 32))
(declare-fun src_reg_44_226 () (_ BitVec 32))
(declare-fun src_reg_44_154 () (_ BitVec 32))
(declare-fun src_reg_44_225 () (_ BitVec 32))
(declare-fun src_reg_44_153 () (_ BitVec 32))
(declare-fun src_reg_44_224 () (_ BitVec 64))
(declare-fun src_reg_44_152 () (_ BitVec 64))
(declare-fun src_reg_44_223 () (_ BitVec 64))
(declare-fun src_reg_44_151 () (_ BitVec 64))
(declare-fun src_reg_44_222 () (_ BitVec 64))
(declare-fun src_reg_44_150 () (_ BitVec 64))
(declare-fun src_reg_44_221 () (_ BitVec 64))
(declare-fun src_reg_44_149 () (_ BitVec 64))
(declare-fun src_reg_44_220 () (_ BitVec 64))
(declare-fun src_reg_44_148 () (_ BitVec 64))
(declare-fun src_reg_44_219 () (_ BitVec 64))
(declare-fun src_reg_44_147 () (_ BitVec 64))
(declare-fun src_reg_44_218 () (_ BitVec 32))
(declare-fun src_reg_44_146 () (_ BitVec 32))
(declare-fun src_reg_44_217 () (_ BitVec 32))
(declare-fun src_reg_44_145 () (_ BitVec 32))
(declare-fun dst_reg_44_216 () (_ BitVec 8))
(declare-fun dst_reg_44_144 () (_ BitVec 8))
(declare-fun dst_reg_44_215 () (_ BitVec 32))
(declare-fun dst_reg_44_143 () (_ BitVec 32))
(declare-fun dst_reg_44_214 () (_ BitVec 32))
(declare-fun dst_reg_44_142 () (_ BitVec 32))
(declare-fun dst_reg_44_213 () (_ BitVec 32))
(declare-fun dst_reg_44_141 () (_ BitVec 32))
(declare-fun dst_reg_44_212 () (_ BitVec 32))
(declare-fun dst_reg_44_140 () (_ BitVec 32))
(declare-fun dst_reg_44_211 () (_ BitVec 32))
(declare-fun dst_reg_44_139 () (_ BitVec 32))
(declare-fun dst_reg_44_210 () (_ BitVec 32))
(declare-fun dst_reg_44_138 () (_ BitVec 32))
(declare-fun dst_reg_44_209 () (_ BitVec 32))
(declare-fun dst_reg_44_137 () (_ BitVec 32))
(declare-fun dst_reg_44_208 () (_ BitVec 32))
(declare-fun dst_reg_44_136 () (_ BitVec 32))
(declare-fun dst_reg_44_207 () (_ BitVec 32))
(declare-fun dst_reg_44_135 () (_ BitVec 32))
(declare-fun dst_reg_44_206 () (_ BitVec 64))
(declare-fun dst_reg_44_134 () (_ BitVec 64))
(declare-fun dst_reg_44_205 () (_ BitVec 64))
(declare-fun dst_reg_44_133 () (_ BitVec 64))
(declare-fun dst_reg_44_204 () (_ BitVec 64))
(declare-fun dst_reg_44_132 () (_ BitVec 64))
(declare-fun dst_reg_44_203 () (_ BitVec 64))
(declare-fun dst_reg_44_131 () (_ BitVec 64))
(declare-fun dst_reg_44_202 () (_ BitVec 64))
(declare-fun dst_reg_44_130 () (_ BitVec 64))
(declare-fun dst_reg_44_201 () (_ BitVec 64))
(declare-fun dst_reg_44_129 () (_ BitVec 64))
(declare-fun dst_reg_44_200 () (_ BitVec 32))
(declare-fun dst_reg_44_128 () (_ BitVec 32))
(declare-fun dst_reg_44_199 () (_ BitVec 32))
(declare-fun dst_reg_44_127 () (_ BitVec 32))
(assert (let ((a!1 (and (= cmp2.not.i_44_109 #b1)
                (and (= cmp.not.i_44_106 #b1) (= narrow_44_103 #b0))))
      (a!2 (and (= cmp2.not.i_44_109 #b0)
                (and (= cmp.not.i_44_106 #b1) (= narrow_44_103 #b0))))
      (a!3 (and (= i.i2_44_85 other_branch_src_reg_44_181)
                (= other_branch_src_reg_44_55 other_branch_src_reg_44_182)
                (= i21.i5_44_86 other_branch_src_reg_44_183)
                (= i22.i8_44_87 other_branch_src_reg_44_184)
                (= i23.i11_44_88 other_branch_src_reg_44_185)
                (= i24.i14_44_89 other_branch_src_reg_44_186)
                (= i25.i17_44_90 other_branch_src_reg_44_187)
                (= i26.i20_44_91 other_branch_src_reg_44_188)
                (= i27.i23_44_92 other_branch_src_reg_44_189)
                (= i28.i26_44_93 other_branch_src_reg_44_190)
                (= i29.i29_44_94 other_branch_src_reg_44_191)
                (= i30.i32_44_95 other_branch_src_reg_44_192)
                (= other_branch_src_reg_44_66 other_branch_src_reg_44_193)
                (= other_branch_src_reg_44_67 other_branch_src_reg_44_194)
                (= other_branch_src_reg_44_68 other_branch_src_reg_44_195)
                (= other_branch_src_reg_44_69 other_branch_src_reg_44_196)
                (= other_branch_src_reg_44_70 other_branch_src_reg_44_197)
                (= other_branch_src_reg_44_71 other_branch_src_reg_44_198)
                (= i.i_44_74 other_branch_dst_reg_44_163)
                (= other_branch_dst_reg_44_37 other_branch_dst_reg_44_164)
                (= i21.i_44_75 other_branch_dst_reg_44_165)
                (= i22.i_44_76 other_branch_dst_reg_44_166)
                (= i23.i_44_77 other_branch_dst_reg_44_167)
                (= i24.i_44_78 other_branch_dst_reg_44_168)
                (= i25.i_44_79 other_branch_dst_reg_44_169)
                (= i26.i_44_80 other_branch_dst_reg_44_170)
                (= i27.i_44_81 other_branch_dst_reg_44_171)
                (= i28.i_44_82 other_branch_dst_reg_44_172)
                (= i29.i_44_83 other_branch_dst_reg_44_173)
                (= i30.i_44_84 other_branch_dst_reg_44_174)
                (= other_branch_dst_reg_44_48 other_branch_dst_reg_44_175)
                (= other_branch_dst_reg_44_49 other_branch_dst_reg_44_176)
                (= other_branch_dst_reg_44_50 other_branch_dst_reg_44_177)
                (= other_branch_dst_reg_44_51 other_branch_dst_reg_44_178)
                (= other_branch_dst_reg_44_52 other_branch_dst_reg_44_179)
                (= other_branch_dst_reg_44_53 other_branch_dst_reg_44_180)
                (= #x00000001 src_reg_44_145)
                (= src_reg_44_19 src_reg_44_146)
                (= src_reg_44_20 src_reg_44_147)
                (= src_reg_44_21 src_reg_44_148)
                (= src_reg_44_22 src_reg_44_149)
                (= src_reg_44_23 src_reg_44_150)
                (= src_reg_44_24 src_reg_44_151)
                (= src_reg_44_25 src_reg_44_152)
                (= src_reg_44_26 src_reg_44_153)
                (= src_reg_44_27 src_reg_44_154)
                (= src_reg_44_28 src_reg_44_155)
                (= src_reg_44_29 src_reg_44_156)
                (= src_reg_44_30 src_reg_44_157)
                (= src_reg_44_31 src_reg_44_158)
                (= src_reg_44_32 src_reg_44_159)
                (= src_reg_44_33 src_reg_44_160)
                (= src_reg_44_34 src_reg_44_161)
                (= src_reg_44_35 src_reg_44_162)
                (= #x00000001 dst_reg_44_127)
                (= dst_reg_44_1 dst_reg_44_128)
                (= dst_reg_44_2 dst_reg_44_129)
                (= dst_reg_44_3 dst_reg_44_130)
                (= dst_reg_44_4 dst_reg_44_131)
                (= dst_reg_44_5 dst_reg_44_132)
                (= dst_reg_44_6 dst_reg_44_133)
                (= dst_reg_44_7 dst_reg_44_134)
                (= dst_reg_44_8 dst_reg_44_135)
                (= dst_reg_44_9 dst_reg_44_136)
                (= dst_reg_44_10 dst_reg_44_137)
                (= dst_reg_44_11 dst_reg_44_138)
                (= dst_reg_44_12 dst_reg_44_139)
                (= dst_reg_44_13 dst_reg_44_140)
                (= dst_reg_44_14 dst_reg_44_141)
                (= dst_reg_44_15 dst_reg_44_142)
                (= dst_reg_44_16 dst_reg_44_143)
                (= dst_reg_44_17 dst_reg_44_144)))
      (a!7 (=> (and (= cmp.not.i_44_106 #b1) (= narrow_44_103 #b0))
               (and (= #x00000001 i1.i_44_107)
                    (ite (= i1.i_44_107 #x00000001)
                         (= cmp2.not.i_44_109 #b1)
                         (= cmp2.not.i_44_109 #b0)))))
      (a!8 (=> (= narrow_44_103 #b0)
               (and (= #x00000001 i.i35_44_104)
                    (ite (= i.i35_44_104 #x00000001)
                         (= cmp.not.i_44_106 #b1)
                         (= cmp.not.i_44_106 #b0))))))
(let ((a!4 (and (=> (= narrow_44_103 #b1) a!3)
                (=> (and (= cmp.not.i_44_106 #b0) (= narrow_44_103 #b0)) a!3)
                (=> a!2 a!3)
                (=> a!1
                    (and (= i.i2_44_85 other_branch_src_reg_44_181)
                         (= other_branch_src_reg_44_55
                            other_branch_src_reg_44_182)
                         (= i21.i5_44_86 other_branch_src_reg_44_183)
                         (= i22.i8_44_87 other_branch_src_reg_44_184)
                         (= i23.i11_44_88 other_branch_src_reg_44_185)
                         (= i24.i14_44_89 other_branch_src_reg_44_186)
                         (= i25.i17_44_90 other_branch_src_reg_44_187)
                         (= i26.i20_44_91 other_branch_src_reg_44_188)
                         (= i27.i23_44_92 other_branch_src_reg_44_189)
                         (= cond407.i562.i_44_120 other_branch_src_reg_44_190)
                         (= i29.i29_44_94 other_branch_src_reg_44_191)
                         (= i30.i32_44_95 other_branch_src_reg_44_192)
                         (= other_branch_src_reg_44_66
                            other_branch_src_reg_44_193)
                         (= other_branch_src_reg_44_67
                            other_branch_src_reg_44_194)
                         (= other_branch_src_reg_44_68
                            other_branch_src_reg_44_195)
                         (= other_branch_src_reg_44_69
                            other_branch_src_reg_44_196)
                         (= other_branch_src_reg_44_70
                            other_branch_src_reg_44_197)
                         (= other_branch_src_reg_44_71
                            other_branch_src_reg_44_198)
                         (= i.i_44_74 other_branch_dst_reg_44_163)
                         (= other_branch_dst_reg_44_37
                            other_branch_dst_reg_44_164)
                         (= i21.i_44_75 other_branch_dst_reg_44_165)
                         (= i22.i_44_76 other_branch_dst_reg_44_166)
                         (= i23.i_44_77 other_branch_dst_reg_44_167)
                         (= i24.i_44_78 other_branch_dst_reg_44_168)
                         (= i25.i_44_79 other_branch_dst_reg_44_169)
                         (= i26.i_44_80 other_branch_dst_reg_44_170)
                         (= cond418.i569.i_44_126 other_branch_dst_reg_44_171)
                         (= i28.i_44_82 other_branch_dst_reg_44_172)
                         (= i29.i_44_83 other_branch_dst_reg_44_173)
                         (= i30.i_44_84 other_branch_dst_reg_44_174)
                         (= other_branch_dst_reg_44_48
                            other_branch_dst_reg_44_175)
                         (= other_branch_dst_reg_44_49
                            other_branch_dst_reg_44_176)
                         (= other_branch_dst_reg_44_50
                            other_branch_dst_reg_44_177)
                         (= other_branch_dst_reg_44_51
                            other_branch_dst_reg_44_178)
                         (= other_branch_dst_reg_44_52
                            other_branch_dst_reg_44_179)
                         (= other_branch_dst_reg_44_53
                            other_branch_dst_reg_44_180)
                         (= #x00000001 src_reg_44_145)
                         (= src_reg_44_19 src_reg_44_146)
                         (= src_reg_44_20 src_reg_44_147)
                         (= src_reg_44_21 src_reg_44_148)
                         (= src_reg_44_22 src_reg_44_149)
                         (= src_reg_44_23 src_reg_44_150)
                         (= src_reg_44_24 src_reg_44_151)
                         (= src_reg_44_25 src_reg_44_152)
                         (= cond371.i.i_44_114 src_reg_44_153)
                         (= src_reg_44_27 src_reg_44_154)
                         (= src_reg_44_28 src_reg_44_155)
                         (= src_reg_44_29 src_reg_44_156)
                         (= src_reg_44_30 src_reg_44_157)
                         (= src_reg_44_31 src_reg_44_158)
                         (= src_reg_44_32 src_reg_44_159)
                         (= src_reg_44_33 src_reg_44_160)
                         (= src_reg_44_34 src_reg_44_161)
                         (= src_reg_44_35 src_reg_44_162)
                         (= #x00000001 dst_reg_44_127)
                         (= dst_reg_44_1 dst_reg_44_128)
                         (= dst_reg_44_2 dst_reg_44_129)
                         (= dst_reg_44_3 dst_reg_44_130)
                         (= dst_reg_44_4 dst_reg_44_131)
                         (= dst_reg_44_5 dst_reg_44_132)
                         (= dst_reg_44_6 dst_reg_44_133)
                         (= dst_reg_44_7 dst_reg_44_134)
                         (= dst_reg_44_8 dst_reg_44_135)
                         (= cond361.i.i_44_111 dst_reg_44_136)
                         (= dst_reg_44_10 dst_reg_44_137)
                         (= dst_reg_44_11 dst_reg_44_138)
                         (= dst_reg_44_12 dst_reg_44_139)
                         (= dst_reg_44_13 dst_reg_44_140)
                         (= dst_reg_44_14 dst_reg_44_141)
                         (= dst_reg_44_15 dst_reg_44_142)
                         (= dst_reg_44_16 dst_reg_44_143)
                         (= dst_reg_44_17 dst_reg_44_144)))
                (= dst_reg_44_127 dst_reg_44_199)
                (= dst_reg_44_128 dst_reg_44_200)
                (= dst_reg_44_129 dst_reg_44_201)
                (= dst_reg_44_130 dst_reg_44_202)
                (= dst_reg_44_131 dst_reg_44_203)
                (= dst_reg_44_132 dst_reg_44_204)
                (= dst_reg_44_133 dst_reg_44_205)
                (= dst_reg_44_134 dst_reg_44_206)
                (= dst_reg_44_135 dst_reg_44_207)
                (= dst_reg_44_136 dst_reg_44_208)
                (= dst_reg_44_137 dst_reg_44_209)
                (= dst_reg_44_138 dst_reg_44_210)
                (= dst_reg_44_139 dst_reg_44_211)
                (= dst_reg_44_140 dst_reg_44_212)
                (= dst_reg_44_141 dst_reg_44_213)
                (= dst_reg_44_142 dst_reg_44_214)
                (= dst_reg_44_143 dst_reg_44_215)
                (= dst_reg_44_144 dst_reg_44_216)
                (= src_reg_44_145 src_reg_44_217)
                (= src_reg_44_146 src_reg_44_218)
                (= src_reg_44_147 src_reg_44_219)
                (= src_reg_44_148 src_reg_44_220)
                (= src_reg_44_149 src_reg_44_221)
                (= src_reg_44_150 src_reg_44_222)
                (= src_reg_44_151 src_reg_44_223)
                (= src_reg_44_152 src_reg_44_224)
                (= src_reg_44_153 src_reg_44_225)
                (= src_reg_44_154 src_reg_44_226)
                (= src_reg_44_155 src_reg_44_227)
                (= src_reg_44_156 src_reg_44_228)
                (= src_reg_44_157 src_reg_44_229)
                (= src_reg_44_158 src_reg_44_230)
                (= src_reg_44_159 src_reg_44_231)
                (= src_reg_44_160 src_reg_44_232)
                (= src_reg_44_161 src_reg_44_233)
                (= src_reg_44_162 src_reg_44_234)
                (= other_branch_dst_reg_44_163 other_branch_dst_reg_44_235)
                (= other_branch_dst_reg_44_164 other_branch_dst_reg_44_236)
                (= other_branch_dst_reg_44_165 other_branch_dst_reg_44_237)
                (= other_branch_dst_reg_44_166 other_branch_dst_reg_44_238)
                (= other_branch_dst_reg_44_167 other_branch_dst_reg_44_239)
                (= other_branch_dst_reg_44_168 other_branch_dst_reg_44_240)
                (= other_branch_dst_reg_44_169 other_branch_dst_reg_44_241)
                (= other_branch_dst_reg_44_170 other_branch_dst_reg_44_242)
                (= other_branch_dst_reg_44_171 other_branch_dst_reg_44_243)
                (= other_branch_dst_reg_44_172 other_branch_dst_reg_44_244)
                (= other_branch_dst_reg_44_173 other_branch_dst_reg_44_245)
                (= other_branch_dst_reg_44_174 other_branch_dst_reg_44_246)
                (= other_branch_dst_reg_44_175 other_branch_dst_reg_44_247)
                (= other_branch_dst_reg_44_176 other_branch_dst_reg_44_248)
                (= other_branch_dst_reg_44_177 other_branch_dst_reg_44_249)
                (= other_branch_dst_reg_44_178 other_branch_dst_reg_44_250)
                (= other_branch_dst_reg_44_179 other_branch_dst_reg_44_251)
                (= other_branch_dst_reg_44_180 other_branch_dst_reg_44_252)
                (= other_branch_src_reg_44_181 other_branch_src_reg_44_253)
                (= other_branch_src_reg_44_182 other_branch_src_reg_44_254)
                (= other_branch_src_reg_44_183 other_branch_src_reg_44_255)
                (= other_branch_src_reg_44_184 other_branch_src_reg_44_256)
                (= other_branch_src_reg_44_185 other_branch_src_reg_44_257)
                (= other_branch_src_reg_44_186 other_branch_src_reg_44_258)
                (= other_branch_src_reg_44_187 other_branch_src_reg_44_259)
                (= other_branch_src_reg_44_188 other_branch_src_reg_44_260)
                (= other_branch_src_reg_44_189 other_branch_src_reg_44_261)
                (= other_branch_src_reg_44_190 other_branch_src_reg_44_262)
                (= other_branch_src_reg_44_191 other_branch_src_reg_44_263)
                (= other_branch_src_reg_44_192 other_branch_src_reg_44_264)
                (= other_branch_src_reg_44_193 other_branch_src_reg_44_265)
                (= other_branch_src_reg_44_194 other_branch_src_reg_44_266)
                (= other_branch_src_reg_44_195 other_branch_src_reg_44_267)
                (= other_branch_src_reg_44_196 other_branch_src_reg_44_268)
                (= other_branch_src_reg_44_197 other_branch_src_reg_44_269)
                (= other_branch_src_reg_44_198 other_branch_src_reg_44_270)))
      (a!6 (=> a!1
               (and (ite (bvslt i138.i.i_44_97 i146.i.i_44_99)
                         (= cmp356.i.i_44_110 #b1)
                         (= cmp356.i.i_44_110 #b0))
                    (ite (= cmp356.i.i_44_110 #b1)
                         (= cond361.i.i_44_111 i138.i.i_44_97)
                         (= cond361.i.i_44_111 i146.i.i_44_99))
                    (= src_reg_44_26 i365.i.i_44_112)
                    (ite (bvsgt i136.i.i_44_96 i365.i.i_44_112)
                         (= cmp366.i.i_44_113 #b1)
                         (= cmp366.i.i_44_113 #b0))
                    (ite (= cmp366.i.i_44_113 #b1)
                         (= cond371.i.i_44_114 i136.i.i_44_96)
                         (= cond371.i.i_44_114 i365.i.i_44_112))
                    (= i28.i26_44_93 i370.i557.i_44_115)
                    (= i28.i_44_82 i371.i559.i_44_116)
                    (= sub400.i560.i_44_118
                       (bvadd i371.i559.i_44_116 #xffffffff))
                    (ite (bvslt i370.i557.i_44_115 sub400.i560.i_44_118)
                         (= cmp402.i561.i_44_119 #b1)
                         (= cmp402.i561.i_44_119 #b0))
                    (ite (= cmp402.i561.i_44_119 #b1)
                         (= cond407.i562.i_44_120 i370.i557.i_44_115)
                         (= cond407.i562.i_44_120 sub400.i560.i_44_118))
                    (= i27.i23_44_92 i372.i564.i_44_121)
                    (= add410.i565.i_44_123
                       (bvadd i372.i564.i_44_121 #x00000001))
                    (= i27.i_44_81 i373.i567.i_44_124)
                    (ite (bvsgt add410.i565.i_44_123 i373.i567.i_44_124)
                         (= cmp413.i568.i_44_125 #b1)
                         (= cmp413.i568.i_44_125 #b0))
                    (ite (= cmp413.i568.i_44_125 #b1)
                         (= cond418.i569.i_44_126 add410.i565.i_44_123)
                         (= cond418.i569.i_44_126 i373.i567.i_44_124))))))
(let ((a!5 (=> (or a!1
                   a!2
                   (and (= cmp.not.i_44_106 #b0) (= narrow_44_103 #b0))
                   (= narrow_44_103 #b1))
               a!4)))
  (and a!5
       a!6
       a!7
       a!8
       (= dst_reg_44_0 dst_reg_44_0)
       (= dst_reg_44_1 dst_reg_44_1)
       (= dst_reg_44_2 dst_reg_44_2)
       (= dst_reg_44_3 dst_reg_44_3)
       (= dst_reg_44_4 dst_reg_44_4)
       (= dst_reg_44_5 dst_reg_44_5)
       (= dst_reg_44_6 dst_reg_44_6)
       (= dst_reg_44_7 dst_reg_44_7)
       (= dst_reg_44_8 dst_reg_44_8)
       (= dst_reg_44_9 dst_reg_44_9)
       (= dst_reg_44_10 dst_reg_44_10)
       (= dst_reg_44_11 dst_reg_44_11)
       (= dst_reg_44_12 dst_reg_44_12)
       (= dst_reg_44_13 dst_reg_44_13)
       (= dst_reg_44_14 dst_reg_44_14)
       (= dst_reg_44_15 dst_reg_44_15)
       (= dst_reg_44_16 dst_reg_44_16)
       (= dst_reg_44_17 dst_reg_44_17)
       (= src_reg_44_18 src_reg_44_18)
       (= src_reg_44_19 src_reg_44_19)
       (= src_reg_44_20 src_reg_44_20)
       (= src_reg_44_21 src_reg_44_21)
       (= src_reg_44_22 src_reg_44_22)
       (= src_reg_44_23 src_reg_44_23)
       (= src_reg_44_24 src_reg_44_24)
       (= src_reg_44_25 src_reg_44_25)
       (= src_reg_44_26 src_reg_44_26)
       (= src_reg_44_27 src_reg_44_27)
       (= src_reg_44_28 src_reg_44_28)
       (= src_reg_44_29 src_reg_44_29)
       (= src_reg_44_30 src_reg_44_30)
       (= src_reg_44_31 src_reg_44_31)
       (= src_reg_44_32 src_reg_44_32)
       (= src_reg_44_33 src_reg_44_33)
       (= src_reg_44_34 src_reg_44_34)
       (= src_reg_44_35 src_reg_44_35)
       (= other_branch_dst_reg_44_36 other_branch_dst_reg_44_36)
       (= other_branch_dst_reg_44_37 other_branch_dst_reg_44_37)
       (= other_branch_dst_reg_44_38 other_branch_dst_reg_44_38)
       (= other_branch_dst_reg_44_39 other_branch_dst_reg_44_39)
       (= other_branch_dst_reg_44_40 other_branch_dst_reg_44_40)
       (= other_branch_dst_reg_44_41 other_branch_dst_reg_44_41)
       (= other_branch_dst_reg_44_42 other_branch_dst_reg_44_42)
       (= other_branch_dst_reg_44_43 other_branch_dst_reg_44_43)
       (= other_branch_dst_reg_44_44 other_branch_dst_reg_44_44)
       (= other_branch_dst_reg_44_45 other_branch_dst_reg_44_45)
       (= other_branch_dst_reg_44_46 other_branch_dst_reg_44_46)
       (= other_branch_dst_reg_44_47 other_branch_dst_reg_44_47)
       (= other_branch_dst_reg_44_48 other_branch_dst_reg_44_48)
       (= other_branch_dst_reg_44_49 other_branch_dst_reg_44_49)
       (= other_branch_dst_reg_44_50 other_branch_dst_reg_44_50)
       (= other_branch_dst_reg_44_51 other_branch_dst_reg_44_51)
       (= other_branch_dst_reg_44_52 other_branch_dst_reg_44_52)
       (= other_branch_dst_reg_44_53 other_branch_dst_reg_44_53)
       (= other_branch_src_reg_44_54 other_branch_src_reg_44_54)
       (= other_branch_src_reg_44_55 other_branch_src_reg_44_55)
       (= other_branch_src_reg_44_56 other_branch_src_reg_44_56)
       (= other_branch_src_reg_44_57 other_branch_src_reg_44_57)
       (= other_branch_src_reg_44_58 other_branch_src_reg_44_58)
       (= other_branch_src_reg_44_59 other_branch_src_reg_44_59)
       (= other_branch_src_reg_44_60 other_branch_src_reg_44_60)
       (= other_branch_src_reg_44_61 other_branch_src_reg_44_61)
       (= other_branch_src_reg_44_62 other_branch_src_reg_44_62)
       (= other_branch_src_reg_44_63 other_branch_src_reg_44_63)
       (= other_branch_src_reg_44_64 other_branch_src_reg_44_64)
       (= other_branch_src_reg_44_65 other_branch_src_reg_44_65)
       (= other_branch_src_reg_44_66 other_branch_src_reg_44_66)
       (= other_branch_src_reg_44_67 other_branch_src_reg_44_67)
       (= other_branch_src_reg_44_68 other_branch_src_reg_44_68)
       (= other_branch_src_reg_44_69 other_branch_src_reg_44_69)
       (= other_branch_src_reg_44_70 other_branch_src_reg_44_70)
       (= other_branch_src_reg_44_71 other_branch_src_reg_44_71)
       (= #x00000001 i.i_44_74)
       (= dst_reg_44_2 i21.i_44_75)
       (= dst_reg_44_3 i22.i_44_76)
       (= dst_reg_44_4 i23.i_44_77)
       (= dst_reg_44_5 i24.i_44_78)
       (= dst_reg_44_6 i25.i_44_79)
       (= dst_reg_44_7 i26.i_44_80)
       (= dst_reg_44_8 i27.i_44_81)
       (= dst_reg_44_9 i28.i_44_82)
       (= dst_reg_44_10 i29.i_44_83)
       (= dst_reg_44_11 i30.i_44_84)
       (= #x00000001 i.i2_44_85)
       (= src_reg_44_20 i21.i5_44_86)
       (= src_reg_44_21 i22.i8_44_87)
       (= src_reg_44_22 i23.i11_44_88)
       (= src_reg_44_23 i24.i14_44_89)
       (= src_reg_44_24 i25.i17_44_90)
       (= src_reg_44_25 i26.i20_44_91)
       (= src_reg_44_26 i27.i23_44_92)
       (= src_reg_44_27 i28.i26_44_93)
       (= src_reg_44_28 i29.i29_44_94)
       (= src_reg_44_29 i30.i32_44_95)
       (= dst_reg_44_8 i136.i.i_44_96)
       (= dst_reg_44_9 i138.i.i_44_97)
       (= src_reg_44_26 i144.i.i_44_98)
       (= src_reg_44_27 i146.i.i_44_99)
       (ite (bvsgt i136.i.i_44_96 i146.i.i_44_99)
            (= cmp201.i.i_44_100 #b1)
            (= cmp201.i.i_44_100 #b0))
       (ite (bvsle i138.i.i_44_97 i144.i.i_44_98)
            (= cmp205.not.i.i_44_101 #b1)
            (= cmp205.not.i.i_44_101 #b0))
       (ite (= cmp201.i.i_44_100 #b1)
            (= narrow_44_103 #b1)
            (= narrow_44_103 cmp205.not.i.i_44_101)))))))

;{"dst_reg":["dst_reg_44_0","dst_reg_44_1",[""],["dst_reg_44_2","dst_reg_44_3"],"dst_reg_44_4","dst_reg_44_5","dst_reg_44_6","dst_reg_44_7","dst_reg_44_8","dst_reg_44_9","dst_reg_44_10","dst_reg_44_11","dst_reg_44_12","dst_reg_44_13","","","dst_reg_44_14","dst_reg_44_15","dst_reg_44_16"],"other_branch_dst_reg":["other_branch_dst_reg_44_36","other_branch_dst_reg_44_37",[""],["other_branch_dst_reg_44_38","other_branch_dst_reg_44_39"],"other_branch_dst_reg_44_40","other_branch_dst_reg_44_41","other_branch_dst_reg_44_42","other_branch_dst_reg_44_43","other_branch_dst_reg_44_44","other_branch_dst_reg_44_45","other_branch_dst_reg_44_46","other_branch_dst_reg_44_47","other_branch_dst_reg_44_48","other_branch_dst_reg_44_49","","","other_branch_dst_reg_44_50","other_branch_dst_reg_44_51","other_branch_dst_reg_44_52"],"other_branch_src_reg":["other_branch_src_reg_44_54","other_branch_src_reg_44_55",[""],["other_branch_src_reg_44_56","other_branch_src_reg_44_57"],"other_branch_src_reg_44_58","other_branch_src_reg_44_59","other_branch_src_reg_44_60","other_branch_src_reg_44_61","other_branch_src_reg_44_62","other_branch_src_reg_44_63","other_branch_src_reg_44_64","other_branch_src_reg_44_65","other_branch_src_reg_44_66","other_branch_src_reg_44_67","","","other_branch_src_reg_44_68","other_branch_src_reg_44_69","other_branch_src_reg_44_70"],"src_reg":["src_reg_44_18","src_reg_44_19",[""],["src_reg_44_20","src_reg_44_21"],"src_reg_44_22","src_reg_44_23","src_reg_44_24","src_reg_44_25","src_reg_44_26","src_reg_44_27","src_reg_44_28","src_reg_44_29","src_reg_44_30","src_reg_44_31","","","src_reg_44_32","src_reg_44_33","src_reg_44_34"]}
;{"dst_reg":["dst_reg_44_199","dst_reg_44_200",[""],["dst_reg_44_201","dst_reg_44_202"],"dst_reg_44_203","dst_reg_44_204","dst_reg_44_205","dst_reg_44_206","dst_reg_44_207","dst_reg_44_208","dst_reg_44_209","dst_reg_44_210","dst_reg_44_211","dst_reg_44_212","","","dst_reg_44_213","dst_reg_44_214","dst_reg_44_215"],"other_branch_dst_reg":["other_branch_dst_reg_44_235","other_branch_dst_reg_44_236",[""],["other_branch_dst_reg_44_237","other_branch_dst_reg_44_238"],"other_branch_dst_reg_44_239","other_branch_dst_reg_44_240","other_branch_dst_reg_44_241","other_branch_dst_reg_44_242","other_branch_dst_reg_44_243","other_branch_dst_reg_44_244","other_branch_dst_reg_44_245","other_branch_dst_reg_44_246","other_branch_dst_reg_44_247","other_branch_dst_reg_44_248","","","other_branch_dst_reg_44_249","other_branch_dst_reg_44_250","other_branch_dst_reg_44_251"],"other_branch_src_reg":["other_branch_src_reg_44_253","other_branch_src_reg_44_254",[""],["other_branch_src_reg_44_255","other_branch_src_reg_44_256"],"other_branch_src_reg_44_257","other_branch_src_reg_44_258","other_branch_src_reg_44_259","other_branch_src_reg_44_260","other_branch_src_reg_44_261","other_branch_src_reg_44_262","other_branch_src_reg_44_263","other_branch_src_reg_44_264","other_branch_src_reg_44_265","other_branch_src_reg_44_266","","","other_branch_src_reg_44_267","other_branch_src_reg_44_268","other_branch_src_reg_44_269"],"src_reg":["src_reg_44_217","src_reg_44_218",[""],["src_reg_44_219","src_reg_44_220"],"src_reg_44_221","src_reg_44_222","src_reg_44_223","src_reg_44_224","src_reg_44_225","src_reg_44_226","src_reg_44_227","src_reg_44_228","src_reg_44_229","src_reg_44_230","","","src_reg_44_231","src_reg_44_232","src_reg_44_233"]}
